# Rigid body platelets
units       lj
atom_style  molecular
boundary    p p p

log sim.log

read_data   structure.data
mass        * 1.0

# Group all platelet atoms
group plates type 1

# Automatic communication cutoff based on G value
variable comm_cutoff equal (2*5+1)*0.6
comm_modify cutoff ${comm_cutoff}

# WCA potential
pair_style      lj/cut 1.12246
pair_modify     shift yes
pair_coeff      * * 1.0 1.0 1.12246

neighbor     1.0 bin
neigh_modify every 1 delay 0 check yes

# Harmonic bonds (ignored by rigid fix)
bond_style   harmonic
bond_coeff   * 1000.0 1.0

# Rigid body integration with Langevin thermostat
fix  rig plates rigid/small molecule langevin 1.0 1.0 1.0 58291

# Initial velocities
velocity plates create 1.0 58291 mom yes rot yes dist gaussian

timestep 0.005

# Minimal thermo output
thermo_style custom step temp etotal press
thermo       1000

# Short minimization for test
min_style    cg
minimize     1.0e-4 1.0e-6  1000 5000

reset_timestep 0

# Trajectory output
dump         traj all custom 1000 sim.lammpstrj id mol type x y z
dump_modify  traj sort id

# Short test run
run     5000

# Write final configuration
write_data  sim_final.data
