# Strong harmonic bonds approach
units       lj
atom_style  molecular
boundary    p p p

log sim.log

read_data   structure.data
mass        * 1.0

# Communication for large systems
comm_modify cutoff 3.0

# WCA potential
pair_style      lj/cut 1.12246
pair_modify     shift yes
pair_coeff      * * 1.0 1.0 1.12246

neighbor     1.0 bin
neigh_modify every 1 delay 0 check yes

# Strong harmonic bonds for rigidity
bond_style   harmonic
bond_coeff   * 4225.0 1.0

# Langevin thermostat + NVE integration
fix     brown all langevin 1.0 1.0 1.0 58291
fix     int   all nve
timestep 0.002

# Minimal thermo output
thermo_style custom step temp pe ke etotal press
thermo       1000

# Short minimization for test
min_style    cg
minimize     1.0e-4 1.0e-6  1000 5000

reset_timestep 0

# Trajectory output
dump         traj all custom 1000 sim.lammpstrj id mol type x y z
dump_modify  traj sort id

# Short test run
run     5000

# Write final configuration
write_data  sim_final.data
